c Exact Cover generated CNF. n=7 S=[[3, 4, 5, 6], [1, 3, 4, 5], [4], [6], [4, 7]]
p cnf 12 45
1 0
2 0
3 0
4 0
5 0
6 0
7 0
-8 3 0
-8 4 0
-8 5 0
-8 6 0
-9 1 0
-9 3 0
-9 4 0
-9 5 0
-10 4 0
-11 6 0
-12 4 0
-12 7 0
-1 9 0
-2 0
-3 8 9 0
-4 8 9 10 12 0
-5 8 9 0
-6 8 11 0
-7 12 0
-8 -8 0
-8 -9 0
-8 -10 0
-8 -11 0
-8 -12 0
-9 -8 0
-9 -9 0
-9 -10 0
-9 -12 0
-10 -8 0
-10 -9 0
-10 -10 0
-10 -12 0
-11 -8 0
-11 -11 0
-12 -8 0
-12 -9 0
-12 -10 0
-12 -12 0
